variable	out_freq equal 500
variable	out_freq2 equal 5000

neigh_modify    delay 10 every 1
### Argon Potential Parameters ###
pair_style      eam/fs
pair_coeff      * * ../Na_MendelevM_2014.eam.fs Na

thermo          ${out_freq}
thermo_style 	custom step temp pe press lx ly lz xy xz yz pxx pyy pzz pxy pxz pyz


restart 	${out_freq} restart.lmp restart2.lmp


